param set_len = 36;
param target_sum = 10216889107;
param values := [1] 951427671 [2] 176634288 [3] 3148159 [4] 214660675 [5] 543433879 [6] 763675902 [7] 877361095 [8] 461227263 [9] 461752432 [10] 452688254 [11] 52775081 [12] 1069178986 [13] 542458393 [14] 447194913 [15] 262160774 [16] 511730373 [17] 689729518 [18] 393276546 [19] 1034773562 [20] 253971056 [21] 146869221 [22] 733677105 [23] 906879410 [24] 899510029 [25] 175212329 [26] 746257104 [27] 732803753 [28] 683329854 [29] 241555904 [30] 236561947 [31] 263645851 [32] 679277140 [33] 305147358 [34] 892111649 [35] 532193290 [36] 822502484 ;
